p cnf 20 15
-20 6 -17 -12 10 -7 -14 13 1 -8 0
17 -1 18 13 -3 2 7 11 -15 -19 0
6 -13 -1 -7 18 -3 15 -19 14 5 0
-17 -12 -13 20 18 -5 -7 19 16 -1 0
-11 -13 -4 -20 15 -16 -9 -1 7 -18 0
-16 -15 6 10 13 -2 -9 1 11 14 0
20 -11 -6 16 -8 -5 -17 -12 9 -2 0
13 14 7 -4 9 -20 5 15 -2 16 0
9 -8 13 15 18 16 19 -14 17 -2 0
16 14 -6 -5 -2 -17 10 -19 -11 -15 0
-13 -5 11 -3 -10 14 -6 1 -20 7 0
-11 -7 -9 2 -10 -14 -18 -20 -16 4 0
17 20 7 8 -10 -3 13 -9 -5 1 0
15 20 2 -9 -17 -11 -14 13 8 -7 0
13 1 3 -10 -7 -20 -11 -15 12 8 0
